(declare-fun bvlambda_11_ ()Bool         )
(declare-fun bvlambda_13_ () (_ BitVec 5))
(declare-fun bvlambda_23_ () (_ BitVec 2))
(declare-fun bvlambda_24_ () (_ BitVec 4))
(declare-fun a69 () (Array (_ BitVec 1) (_ BitVec 5)))
(assert
(let (($e7 (_ bv2046 11)))
(let (($e125 (store a69 false      bvlambda_13_)))
(let (($e142 (concat bvlambda_13_ bvlambda_23_)))
(let (($e143 (concat $e142 bvlambda_24_)))
(let (($e144 (bvadd        $e7         $e143 )))
(let (($e268 (   extract      $e144)))
(let (($e269 (store a69 $e268 bvlambda_13_)))
(let (($e270 (select $e269 true       )))
(let (($e365 (select $e125 bvlambda_11_)))
(
not                       (= $e270 $e365)
                                                                                                                                                                                                                                                                                                                                                                                                                                                                                                                                                                              )                                                                                                                                                                                                                                                                                                                                                       )                                                                                              )))                                                                                                                           )))                )                                                                                           )      )
